\ Model Routes
\ LP format - for model browsing. Use MPS format to capture full model detail.
Maximize
  - 119.1319634799971 R{0,0} + 692.51348508692 R{0,1}
   + 973.9488578134103 R{0,2} + 626.8524908976798 R{0,3}
   + 509.533128709043 R{0,4} + 1023.072014483264 R{0,5}
   + 192.0946756332883 R{0,6} + 719.8725865438432 R{0,7}
   + 824.2445751431246 R{0,8} + 1193.681929188477 R{0,9}
   + 928.7285095250188 R{0,10} + 659.5128727952433 R{0,11}
   + 722.970258780058 R{0,12} + 769.078651042975 R{0,13}
   + 786.9716965147668 R{0,14} + 725.573524999606 R{0,15}
   + 1206.689294841858 R{0,16} - 207.8100186194083 R{1,0}
   + 470.8306900727231 R{1,1} + 657.1671054530773 R{1,2}
   + 657.1671054530773 R{1,3} + 806.389732809209 R{1,4}
   + 140.6126392908191 R{1,5} + 424.5239033296695 R{1,6}
   + 221.5214570293294 R{1,7} + 376.5805873562838 R{1,8}
   + 197.7319264579032 R{1,9} + 1088.6592125014 R{1,10}
   + 761.6329549663321 R{1,11} + 921.2088386133662 R{2,0}
   - 87.24034700926869 R{2,1} + 554.7779828395285 R{2,2}
   + 847.4528226102619 R{2,3} + 847.4528226102619 R{2,4}
   + 224.0428984527355 R{2,5} + 308.100538749835 R{2,6}
   + 586.492748008579 R{2,7} + 418.6366694064039 R{2,8}
   + 526.4136197003484 R{2,9} + 466.8647653328301 R{2,10}
   + 442.6202569690895 R{2,11} + 165.1312543447854 R{2,12}
   + 219.8817971086056 R{2,13} + 229.2190426700856 R{2,14}
   + 77.99812392089194 R{2,15} + 76.92366123354373 R{2,16}
   + 569.7098362917511 R{2,17} + 210.0758307816067 R{2,18}
   + 293.8179082378457 R{2,19} + 535.6347709510495 R{2,20}
   + 327.2437506383139 R{2,21} + 814.8209204791438 R{2,22}
   + 550.5666244032722 R{2,23} - 91.47456976776279 R{3,0}
   + 127.8223449249066 R{3,1} + 689.3668198386505 R{3,2}
   + 902.1368240795167 R{3,3} + 1169.36580451167 R{3,4}
   + 919.4662925531106 R{3,5} + 544.4601385536835 R{3,6}
   + 447.7497630753725 R{3,7} + 782.8602452037053 R{3,8}
   + 100.9268025705323 R{3,9} + 895.6239299924832 R{3,10}
   + 360.8896992441026 R{3,11} + 1776.872159765505 R{3,12}
   + 370.4330295125552 R{3,13} + 1284.449150057264 R{3,14}
   + 315.8546210908239 R{3,15} + 1504.471666156503 R{3,16}
   + 459.8469906212683 R{3,17} + 1158.597045744387 R{3,18}
   + 608.9774283282654 R{3,19} + 670.1373158435969 R{3,20}
   + 1893.378878600081 R{3,21} + 831.2268483555024 R{3,22}
   + 1374.620270672109 R{3,23} + 1110.017627189297 R{3,24}
   + 2222.489548660998 R{3,25} + 820.9929651308049 R{3,26}
   + 847.188844658639 R{3,27} + 806.5450855001923 R{3,28}
   + 308.2876534979164 R{4,0} + 3827.735242424639 R{4,1}
   + 3907.892775083185 R{4,2} - 118.9186664284507 R{4,3}
   + 877.9920581676419 R{4,4} + 2356.611289368724 R{4,5}
   + 3015.747172102569 R{4,6} + 3441.51588766056 R{4,7}
   + 2427.698811500257 R{4,8} + 1888.642119751009 R{4,9}
   + 1686.195942088127 R{4,10} + 2016.580398936944 R{4,11}
   + 1249.215429616564 R{4,12} + 1963.181138269404 R{4,13}
   + 1751.356957795662 R{4,14} + 2257.319840295163 R{4,15}
   + 1905.265337701188 R{4,16} + 3065.174459757743 R{4,17}
   + 2091.323742363128 R{4,18} + 3081.161131733589 R{4,19}
   + 1886.682162297222 R{4,20} + 1944.871976402914 R{4,21}
   + 3398.510331819291 R{4,22} + 3184.965847056686 R{4,23}
   + 1323.224105775013 R{4,24} + 2093.116907677537 R{4,25}
   + 2261.931679656272 R{4,26} + 1543.954526506901 R{4,27}
   + 1734.214209519688 R{4,28} + 690.517514197843 R{4,29}
   + 1730.453062633852 R{4,30} + 2541.934349492541 R{4,31}
   + 858.9612008788522 R{4,32} + 2342.497430713009 R{4,33}
   - 0.3632124796954699 R{5,0} + 1115.200147284747 R{5,1}
   + 1352.767551566492 R{5,2} - 74.85334299445449 R{5,3}
   + 229.4684394157541 R{5,4} + 846.0635184824819 R{5,5}
   + 165.0883257756856 R{5,6} + 307.7838321224405 R{5,7}
   + 805.9001069104045 R{5,8} + 669.6865196811392 R{5,9}
   + 658.9405202702897 R{5,10} + 547.5058535337978 R{5,11}
   + 380.0585505477993 R{5,12} + 387.8937278929517 R{5,13}
   + 727.5300326184727 R{5,14} + 10.96285578428576 R{5,15}
   + 218.0063690492319 R{5,16} + 667.1672290535416 R{5,17}
   + 238.5111689637827 R{5,18} + 724.6624664013692 R{5,19}
   + 520.5674916235947 R{5,20} + 553.8705894506154 R{5,21}
   + 448.4083505707792 R{5,22} + 93.65133094640746 R{5,23}
   + 678.6612765658724 R{5,24} + 267.4545957143546 R{5,25}
   + 1392.372196069087 R{6,0} + 1392.372196069087 R{6,1}
   - 126.1649536568209 R{6,2} + 1824.946608851928 R{6,3}
   + 1960.988258231213 R{6,4} + 1960.988258231213 R{6,5}
   + 1197.894510944957 R{6,6} + 2457.230330452422 R{6,7}
   + 168.3683027452132 R{6,8} + 683.4730405480182 R{6,9}
   + 394.6972202673521 R{6,10} + 1126.192129726605 R{6,11}
   + 181.5975587526106 R{6,12} + 2041.780601391705 R{6,13}
   + 1705.041463657094 R{6,14} + 60.14661568613781 R{6,15}
   + 2066.64519999455 R{6,16} + 2231.799393530531 R{6,17}
   + 1755.978917756582 R{6,18} + 1247.629892306444 R{6,19}
   + 1892.357648768013 R{6,20} + 2472.909841879498 R{6,21}
   + 557.4502623312284 R{6,22} + 2208.621795654412 R{6,23}
   + 1258.613954194817 R{6,24} + 372.2694080472116 R{6,25}
   + 233.639077848621 R{6,26} + 1323.178139467381 R{6,27}
Subject To
 R00: R{0,0} <= 1
 R01: R{0,1} <= 1
 R02: R{0,2} <= 1
 R03: R{0,3} <= 1
 R04: R{0,4} <= 1
 R05: R{0,5} <= 1
 R06: R{0,6} <= 1
 R07: R{0,7} <= 1
 R08: R{0,8} <= 1
 R09: R{0,9} <= 1
 R010: R{0,10} <= 1
 R011: R{0,11} <= 1
 R012: R{0,12} <= 1
 R013: R{0,13} <= 1
 R014: R{0,14} <= 1
 R015: R{0,15} <= 1
 R016: R{0,16} <= 1
 R017: R{1,0} <= 1
 R018: R{1,1} <= 1
 R019: R{1,2} <= 1
 R020: R{1,3} <= 1
 R021: R{1,4} <= 1
 R022: R{1,5} <= 1
 R023: R{1,6} <= 1
 R024: R{1,7} <= 1
 R025: R{1,8} <= 1
 R026: R{1,9} <= 1
 R027: R{1,10} <= 1
 R028: R{1,11} <= 1
 R029: R{2,0} <= 1
 R030: R{2,1} <= 1
 R031: R{2,2} <= 1
 R032: R{2,3} <= 1
 R033: R{2,4} <= 1
 R034: R{2,5} <= 1
 R035: R{2,6} <= 1
 R036: R{2,7} <= 1
 R037: R{2,8} <= 1
 R038: R{2,9} <= 1
 R039: R{2,10} <= 1
 R040: R{2,11} <= 1
 R041: R{2,12} <= 1
 R042: R{2,13} <= 1
 R043: R{2,14} <= 1
 R044: R{2,15} <= 1
 R045: R{2,16} <= 1
 R046: R{2,17} <= 1
 R047: R{2,18} <= 1
 R048: R{2,19} <= 1
 R049: R{2,20} <= 1
 R050: R{2,21} <= 1
 R051: R{2,22} <= 1
 R052: R{2,23} <= 1
 R053: R{3,0} <= 1
 R054: R{3,1} <= 1
 R055: R{3,2} <= 1
 R056: R{3,3} <= 1
 R057: R{3,4} <= 1
 R058: R{3,5} <= 1
 R059: R{3,6} <= 1
 R060: R{3,7} <= 1
 R061: R{3,8} <= 1
 R062: R{3,9} <= 1
 R063: R{3,10} <= 1
 R064: R{3,11} <= 1
 R065: R{3,12} <= 1
 R066: R{3,13} <= 1
 R067: R{3,14} <= 1
 R068: R{3,15} <= 1
 R069: R{3,16} <= 1
 R070: R{3,17} <= 1
 R071: R{3,18} <= 1
 R072: R{3,19} <= 1
 R073: R{3,20} <= 1
 R074: R{3,21} <= 1
 R075: R{3,22} <= 1
 R076: R{3,23} <= 1
 R077: R{3,24} <= 1
 R078: R{3,25} <= 1
 R079: R{3,26} <= 1
 R080: R{3,27} <= 1
 R081: R{3,28} <= 1
 R082: R{4,0} <= 1
 R083: R{4,1} <= 1
 R084: R{4,2} <= 1
 R085: R{4,3} <= 1
 R086: R{4,4} <= 1
 R087: R{4,5} <= 1
 R088: R{4,6} <= 1
 R089: R{4,7} <= 1
 R090: R{4,8} <= 1
 R091: R{4,9} <= 1
 R092: R{4,10} <= 1
 R093: R{4,11} <= 1
 R094: R{4,12} <= 1
 R095: R{4,13} <= 1
 R096: R{4,14} <= 1
 R097: R{4,15} <= 1
 R098: R{4,16} <= 1
 R099: R{4,17} <= 1
 R0100: R{4,18} <= 1
 R0101: R{4,19} <= 1
 R0102: R{4,20} <= 1
 R0103: R{4,21} <= 1
 R0104: R{4,22} <= 1
 R0105: R{4,23} <= 1
 R0106: R{4,24} <= 1
 R0107: R{4,25} <= 1
 R0108: R{4,26} <= 1
 R0109: R{4,27} <= 1
 R0110: R{4,28} <= 1
 R0111: R{4,29} <= 1
 R0112: R{4,30} <= 1
 R0113: R{4,31} <= 1
 R0114: R{4,32} <= 1
 R0115: R{4,33} <= 1
 R0116: R{5,0} <= 1
 R0117: R{5,1} <= 1
 R0118: R{5,2} <= 1
 R0119: R{5,3} <= 1
 R0120: R{5,4} <= 1
 R0121: R{5,5} <= 1
 R0122: R{5,6} <= 1
 R0123: R{5,7} <= 1
 R0124: R{5,8} <= 1
 R0125: R{5,9} <= 1
 R0126: R{5,10} <= 1
 R0127: R{5,11} <= 1
 R0128: R{5,12} <= 1
 R0129: R{5,13} <= 1
 R0130: R{5,14} <= 1
 R0131: R{5,15} <= 1
 R0132: R{5,16} <= 1
 R0133: R{5,17} <= 1
 R0134: R{5,18} <= 1
 R0135: R{5,19} <= 1
 R0136: R{5,20} <= 1
 R0137: R{5,21} <= 1
 R0138: R{5,22} <= 1
 R0139: R{5,23} <= 1
 R0140: R{5,24} <= 1
 R0141: R{5,25} <= 1
 R0142: R{6,0} <= 1
 R0143: R{6,1} <= 1
 R0144: R{6,2} <= 1
 R0145: R{6,3} <= 1
 R0146: R{6,4} <= 1
 R0147: R{6,5} <= 1
 R0148: R{6,6} <= 1
 R0149: R{6,7} <= 1
 R0150: R{6,8} <= 1
 R0151: R{6,9} <= 1
 R0152: R{6,10} <= 1
 R0153: R{6,11} <= 1
 R0154: R{6,12} <= 1
 R0155: R{6,13} <= 1
 R0156: R{6,14} <= 1
 R0157: R{6,15} <= 1
 R0158: R{6,16} <= 1
 R0159: R{6,17} <= 1
 R0160: R{6,18} <= 1
 R0161: R{6,19} <= 1
 R0162: R{6,20} <= 1
 R0163: R{6,21} <= 1
 R0164: R{6,22} <= 1
 R0165: R{6,23} <= 1
 R0166: R{6,24} <= 1
 R0167: R{6,25} <= 1
 R0168: R{6,26} <= 1
 R0169: R{6,27} <= 1
 R1_0: R{0,0} + R{0,1} + R{0,2} + R{0,3} + R{0,4} + R{0,5} + R{0,6}
   + R{0,7} + R{0,8} + R{0,9} + R{0,10} + R{0,11} + R{0,12} + R{0,13}
   + R{0,14} + R{0,15} + R{0,16} <= 1
 R1_1: R{1,0} + R{1,1} + R{1,2} + R{1,3} + R{1,4} + R{1,5} + R{1,6}
   + R{1,7} + R{1,8} + R{1,9} + R{1,10} + R{1,11} <= 1
 R1_2: R{2,0} + R{2,1} + R{2,2} + R{2,3} + R{2,4} + R{2,5} + R{2,6}
   + R{2,7} + R{2,8} + R{2,9} + R{2,10} + R{2,11} + R{2,12} + R{2,13}
   + R{2,14} + R{2,15} + R{2,16} + R{2,17} + R{2,18} + R{2,19} + R{2,20}
   + R{2,21} + R{2,22} + R{2,23} <= 1
 R1_3: R{3,0} + R{3,1} + R{3,2} + R{3,3} + R{3,4} + R{3,5} + R{3,6}
   + R{3,7} + R{3,8} + R{3,9} + R{3,10} + R{3,11} + R{3,12} + R{3,13}
   + R{3,14} + R{3,15} + R{3,16} + R{3,17} + R{3,18} + R{3,19} + R{3,20}
   + R{3,21} + R{3,22} + R{3,23} + R{3,24} + R{3,25} + R{3,26} + R{3,27}
   + R{3,28} <= 1
 R1_4: R{4,0} + R{4,1} + R{4,2} + R{4,3} + R{4,4} + R{4,5} + R{4,6}
   + R{4,7} + R{4,8} + R{4,9} + R{4,10} + R{4,11} + R{4,12} + R{4,13}
   + R{4,14} + R{4,15} + R{4,16} + R{4,17} + R{4,18} + R{4,19} + R{4,20}
   + R{4,21} + R{4,22} + R{4,23} + R{4,24} + R{4,25} + R{4,26} + R{4,27}
   + R{4,28} + R{4,29} + R{4,30} + R{4,31} + R{4,32} + R{4,33} <= 1
 R1_5: R{5,0} + R{5,1} + R{5,2} + R{5,3} + R{5,4} + R{5,5} + R{5,6}
   + R{5,7} + R{5,8} + R{5,9} + R{5,10} + R{5,11} + R{5,12} + R{5,13}
   + R{5,14} + R{5,15} + R{5,16} + R{5,17} + R{5,18} + R{5,19} + R{5,20}
   + R{5,21} + R{5,22} + R{5,23} + R{5,24} + R{5,25} <= 1
 R1_6: R{6,0} + R{6,1} + R{6,2} + R{6,3} + R{6,4} + R{6,5} + R{6,6}
   + R{6,7} + R{6,8} + R{6,9} + R{6,10} + R{6,11} + R{6,12} + R{6,13}
   + R{6,14} + R{6,15} + R{6,16} + R{6,17} + R{6,18} + R{6,19} + R{6,20}
   + R{6,21} + R{6,22} + R{6,23} + R{6,24} + R{6,25} + R{6,26} + R{6,27}
   <= 1
 R2_0: 7 R{2,3} + 7 R{2,4} + 7 R{2,7} + 7 R{4,1} + 7 R{4,2} + 7 R{4,5}
   + 7 R{4,6} + 7 R{4,8} + 7 R{4,9} + 7 R{4,10} + 7 R{4,11} + 7 R{4,15}
   + 7 R{4,16} + 7 R{4,18} + 7 R{4,26} + 7 R{4,31} + 7 R{6,0} + 7 R{6,1}
   + 7 R{6,3} + 7 R{6,4} + 7 R{6,5} + 7 R{6,7} + 7 R{6,11} + 7 R{6,13}
   + 7 R{6,14} + 7 R{6,16} + 7 R{6,17} + 7 R{6,18} + 7 R{6,20} + 7 R{6,21}
   + 7 R{6,23} + 7 R{6,24} + 7 R{6,27} <= 7
 R2_1: 10 R{1,1} + 10 R{1,2} + 10 R{1,3} + 10 R{1,11} + 10 R{3,2}
   + 10 R{3,3} + 10 R{3,4} + 10 R{3,5} + 10 R{3,8} + 10 R{3,10}
   + 10 R{3,12} + 10 R{3,21} + 10 R{3,24} + 10 R{4,1} + 10 R{4,2}
   + 10 R{4,5} + 10 R{4,6} + 10 R{4,7} + 10 R{4,8} + 10 R{4,10}
   + 10 R{4,11} + 10 R{4,12} + 10 R{4,15} + 10 R{4,17} + 10 R{4,18}
   + 10 R{4,19} + 10 R{4,20} + 10 R{4,21} + 10 R{4,22} + 10 R{4,23}
   + 10 R{4,24} + 10 R{4,26} + 10 R{4,31} + 10 R{4,33} + 10 R{5,1}
   + 10 R{5,2} + 10 R{5,9} + 10 R{5,10} + 10 R{5,11} + 10 R{5,19}
   + 10 R{5,20} + 10 R{6,16} + 10 R{6,20} + 10 R{6,21} <= 10
 R2_2: 13 R{4,1} + 13 R{4,2} + 13 R{4,4} + 13 R{4,5} + 13 R{4,6}
   + 13 R{4,7} + 13 R{4,8} + 13 R{4,13} + 13 R{4,14} + 13 R{4,17}
   + 13 R{4,19} + 13 R{4,21} + 13 R{4,22} + 13 R{4,23} + 13 R{4,25}
   + 13 R{4,28} + 13 R{4,30} + 13 R{4,33} + 13 R{6,0} + 13 R{6,1}
   + 13 R{6,6} + 13 R{6,7} + 13 R{6,19} <= 13
 R2_3: 3 R{0,5} + 3 R{0,9} + 3 R{0,10} + 3 R{1,1} + 3 R{1,2} + 3 R{1,3}
   + 3 R{1,9} + 3 R{1,11} + 3 R{3,20} + 3 R{3,25} + 3 R{4,11} + 3 R{4,15}
   + 3 R{4,16} + 3 R{4,18} + 3 R{4,26} + 3 R{4,27} + 3 R{4,30} + 3 R{5,10}
   + 3 R{6,4} + 3 R{6,5} + 3 R{6,7} + 3 R{6,13} + 3 R{6,16} + 3 R{6,17}
   + 3 R{6,20} + 3 R{6,21} + 3 R{6,23} <= 3
 R2_4: 9 R{4,26} + 9 R{5,0} + 9 R{5,1} + 9 R{5,2} + 9 R{5,4} + 9 R{5,9}
   + 9 R{5,20} <= 9
 R2_5: 4 R{0,1} + 4 R{1,11} + 4 R{3,28} + 4 R{5,0} + 4 R{5,1} + 4 R{5,6}
   + 4 R{5,12} + 4 R{5,20} <= 4
 R2_6: <= 0
 R2_7: 8 R{0,1} + 8 R{0,2} + 8 R{0,3} + 8 R{0,4} + 8 R{0,5} + 8 R{0,6}
   + 8 R{0,7} + 8 R{0,9} + 8 R{0,13} + 8 R{1,6} + 8 R{3,13} + 8 R{3,17}
   + 8 R{3,26} + 8 R{3,27} + 8 R{3,28} + 8 R{4,14} + 8 R{5,9} + 8 R{5,12}
   + 8 R{5,14} + 8 R{5,17} + 8 R{6,7} + 8 R{6,13} + 8 R{6,16} + 8 R{6,17}
   + 8 R{6,23} <= 8
 R2_8: 11 R{2,5} + 11 R{2,6} + 11 R{2,7} + 11 R{2,12} + 11 R{2,16}
   + 11 R{2,19} + 11 R{2,21} + 11 R{4,14} + 11 R{4,15} + 11 R{4,17}
   + 11 R{4,18} + 11 R{4,26} + 11 R{4,28} + 11 R{5,16} + 11 R{5,18}
   + 11 R{6,3} + 11 R{6,4} + 11 R{6,5} + 11 R{6,11} + 11 R{6,12}
   + 11 R{6,14} + 11 R{6,15} + 11 R{6,16} + 11 R{6,17} + 11 R{6,18}
   + 11 R{6,20} + 11 R{6,21} + 11 R{6,23} + 11 R{6,24} + 11 R{6,27} <= 11
 R2_9: 12 R{2,2} + 12 R{2,3} + 12 R{2,4} + 12 R{2,6} + 12 R{2,7}
   + 12 R{2,9} + 12 R{2,14} + 12 R{2,17} + 12 R{2,18} + 12 R{2,19}
   + 12 R{2,20} + 12 R{2,21} + 12 R{2,23} + 12 R{4,1} + 12 R{4,2}
   + 12 R{4,7} + 12 R{4,8} + 12 R{4,11} + 12 R{4,15} + 12 R{4,16}
   + 12 R{4,17} + 12 R{4,18} + 12 R{4,19} + 12 R{4,23} + 12 R{4,25}
   + 12 R{4,26} + 12 R{4,31} + 12 R{4,33} + 12 R{5,23} + 12 R{6,7} <= 12
 R2_10: 6 R{2,2} + 6 R{2,3} + 6 R{2,4} + 6 R{2,5} + 6 R{2,7} + 6 R{2,9}
   + 6 R{2,12} + 6 R{2,14} + 6 R{2,16} + 6 R{2,17} + 6 R{2,19} + 6 R{2,21}
   + 6 R{4,1} + 6 R{4,2} + 6 R{4,7} + 6 R{4,13} + 6 R{4,14} + 6 R{4,15}
   + 6 R{4,17} + 6 R{4,18} + 6 R{4,19} + 6 R{4,22} + 6 R{4,23} + 6 R{4,25}
   + 6 R{4,28} + 6 R{4,30} + 6 R{4,33} + 6 R{6,6} <= 6
 R2_11: <= 0
 R2_12: 15 R{0,6} + 15 R{0,15} + 15 R{0,16} + 15 R{3,1} + 15 R{3,2}
   + 15 R{3,8} + 15 R{3,13} + 15 R{4,1} + 15 R{4,2} + 15 R{4,7}
   + 15 R{4,10} + 15 R{4,14} + 15 R{4,17} + 15 R{4,22} + 15 R{4,23}
   + 15 R{4,31} + 15 R{4,33} + 15 R{5,10} + 15 R{6,7} + 15 R{6,16}
   + 15 R{6,23} <= 15
 R2_13: 8 R{2,5} + 8 R{2,11} + 8 R{2,16} + 8 R{4,22} + 8 R{5,18} + 8 R{6,0}
   + 8 R{6,1} + 8 R{6,3} + 8 R{6,4} + 8 R{6,5} + 8 R{6,11} + 8 R{6,12}
   + 8 R{6,13} + 8 R{6,14} + 8 R{6,15} + 8 R{6,16} + 8 R{6,17} + 8 R{6,18}
   + 8 R{6,20} + 8 R{6,21} + 8 R{6,23} + 8 R{6,24} + 8 R{6,27} <= 8
 R2_14: <= 0
 R2_15: 9 R{2,8} + 9 R{2,10} + 9 R{2,11} + 9 R{2,14} + 9 R{2,15}
   + 9 R{2,17} + 9 R{2,18} + 9 R{2,23} + 9 R{4,19} + 9 R{4,22} + 9 R{4,23}
   + 9 R{4,25} + 9 R{4,33} + 9 R{5,16} + 9 R{5,18} + 9 R{5,23} + 9 R{6,3}
   + 9 R{6,4} + 9 R{6,5} + 9 R{6,7} + 9 R{6,11} + 9 R{6,13} + 9 R{6,16}
   + 9 R{6,18} + 9 R{6,20} + 9 R{6,24} + 9 R{6,27} <= 9
 R2_16: 5 R{1,5} + 5 R{2,2} + 5 R{2,3} + 5 R{2,4} + 5 R{2,8} + 5 R{2,9}
   + 5 R{2,10} + 5 R{2,11} + 5 R{2,17} + 5 R{2,20} + 5 R{2,23} + 5 R{4,1}
   + 5 R{4,2} + 5 R{4,7} + 5 R{4,8} + 5 R{4,13} + 5 R{4,16} + 5 R{4,19}
   + 5 R{4,22} + 5 R{4,25} + 5 R{4,31} + 5 R{5,7} + 5 R{5,22} + 5 R{6,7}
   <= 5
 R2_17: 10 R{0,12} + 10 R{0,13} + 10 R{0,16} + 10 R{1,7} + 10 R{3,19}
   + 10 R{3,24} + 10 R{4,0} + 10 R{4,1} + 10 R{4,11} + 10 R{4,12}
   + 10 R{4,14} + 10 R{4,20} + 10 R{4,21} + 10 R{4,23} + 10 R{4,24}
   + 10 R{4,27} + 10 R{4,28} + 10 R{4,30} + 10 R{4,33} + 10 R{5,21}
   + 10 R{5,24} + 10 R{6,3} + 10 R{6,4} + 10 R{6,5} + 10 R{6,7}
   + 10 R{6,10} + 10 R{6,13} + 10 R{6,17} + 10 R{6,22} + 10 R{6,24}
   + 10 R{6,25} <= 10
 R2_18: 7 R{0,2} + 7 R{0,13} + 7 R{0,15} + 7 R{0,16} + 7 R{1,8} + 7 R{2,0}
   + 7 R{3,3} + 7 R{3,4} + 7 R{3,10} + 7 R{3,11} + 7 R{3,12} + 7 R{3,20}
   + 7 R{3,24} + 7 R{3,25} + 7 R{4,1} + 7 R{4,2} + 7 R{4,14} + 7 R{4,17}
   + 7 R{4,23} + 7 R{4,31} + 7 R{4,33} + 7 R{5,2} + 7 R{5,13} + 7 R{5,14}
   + 7 R{5,17} + 7 R{5,21} + 7 R{5,24} + 7 R{6,3} + 7 R{6,4} + 7 R{6,5}
   + 7 R{6,11} + 7 R{6,13} + 7 R{6,18} + 7 R{6,21} + 7 R{6,24} <= 7
 R2_19: <= 0
 R2_20: 12 R{0,1} + 12 R{0,2} + 12 R{0,5} + 12 R{0,9} + 12 R{2,0}
   + 12 R{2,22} + 12 R{3,12} + 12 R{3,14} + 12 R{3,25} + 12 R{4,1}
   + 12 R{4,2} + 12 R{4,5} + 12 R{4,6} + 12 R{4,7} + 12 R{4,9} + 12 R{4,13}
   + 12 R{4,17} + 12 R{4,19} + 12 R{4,20} + 12 R{4,21} + 12 R{4,22}
   + 12 R{4,23} + 12 R{4,27} + 12 R{5,1} + 12 R{5,2} + 12 R{5,5}
   + 12 R{5,8} + 12 R{6,23} <= 12
 R2_21: 10 R{0,3} + 10 R{0,8} + 10 R{0,10} + 10 R{0,12} + 10 R{0,14}
   + 10 R{0,16} + 10 R{1,4} + 10 R{1,10} + 10 R{3,16} + 10 R{3,22}
   + 10 R{3,26} + 10 R{3,27} + 10 R{4,4} + 10 R{4,5} + 10 R{4,6}
   + 10 R{4,8} + 10 R{4,12} + 10 R{4,13} + 10 R{4,14} + 10 R{4,15}
   + 10 R{4,20} + 10 R{4,21} + 10 R{4,24} + 10 R{4,27} + 10 R{4,28}
   + 10 R{4,29} + 10 R{4,30} + 10 R{4,32} + 10 R{4,33} + 10 R{5,24}
   + 10 R{5,25} + 10 R{6,0} + 10 R{6,1} + 10 R{6,6} + 10 R{6,7} + 10 R{6,9}
   + 10 R{6,10} + 10 R{6,19} + 10 R{6,22} + 10 R{6,25} + 10 R{6,26} <= 10
 R2_22: 10 R{1,4} + 10 R{1,10} + 10 R{3,16} + 10 R{3,18} + 10 R{3,21}
   + 10 R{3,23} + 10 R{3,25} + 10 R{4,1} + 10 R{4,2} + 10 R{4,6}
   + 10 R{4,7} + 10 R{4,17} + 10 R{4,19} + 10 R{4,22} + 10 R{4,23}
   + 10 R{4,25} + 10 R{6,0} + 10 R{6,1} + 10 R{6,3} + 10 R{6,4} + 10 R{6,5}
   + 10 R{6,6} + 10 R{6,13} + 10 R{6,14} + 10 R{6,17} + 10 R{6,18}
   + 10 R{6,19} + 10 R{6,21} <= 10
 R2_23: 11 R{2,2} + 11 R{2,3} + 11 R{2,4} + 11 R{2,5} + 11 R{2,6}
   + 11 R{2,10} + 11 R{2,13} + 11 R{2,20} + 11 R{2,21} + 11 R{4,1}
   + 11 R{4,2} + 11 R{4,7} + 11 R{4,8} + 11 R{4,11} + 11 R{4,13}
   + 11 R{4,14} + 11 R{4,16} + 11 R{4,17} + 11 R{4,23} + 11 R{4,28}
   + 11 R{4,30} + 11 R{4,31} + 11 R{4,33} + 11 R{6,6} + 11 R{6,8} <= 11
 R2_24: 10 R{0,9} + 10 R{0,11} + 10 R{0,14} + 10 R{0,15} + 10 R{0,16}
   + 10 R{2,22} + 10 R{3,6} + 10 R{3,7} + 10 R{3,12} + 10 R{3,13}
   + 10 R{3,14} + 10 R{3,17} + 10 R{3,22} + 10 R{3,23} + 10 R{4,4}
   + 10 R{4,5} + 10 R{4,6} + 10 R{4,7} + 10 R{4,9} + 10 R{4,10}
   + 10 R{4,12} + 10 R{4,16} + 10 R{4,20} + 10 R{4,21} + 10 R{4,22}
   + 10 R{4,24} + 10 R{4,25} + 10 R{4,27} + 10 R{4,28} + 10 R{4,30}
   + 10 R{4,33} + 10 R{5,13} + 10 R{6,18} + 10 R{6,20} + 10 R{6,27} <= 10
 R2_25: 10 R{0,8} + 10 R{0,10} + 10 R{1,7} + 10 R{1,8} + 10 R{3,6}
   + 10 R{3,9} + 10 R{3,16} + 10 R{3,21} + 10 R{3,23} + 10 R{3,25}
   + 10 R{3,28} + 10 R{4,2} + 10 R{4,4} + 10 R{4,5} + 10 R{4,6} + 10 R{4,7}
   + 10 R{4,8} + 10 R{4,9} + 10 R{4,10} + 10 R{4,11} + 10 R{4,13}
   + 10 R{4,15} + 10 R{4,16} + 10 R{4,17} + 10 R{4,18} + 10 R{4,19}
   + 10 R{4,22} + 10 R{4,25} + 10 R{4,26} + 10 R{4,31} + 10 R{4,32}
   + 10 R{6,9} + 10 R{6,11} + 10 R{6,16} + 10 R{6,19} + 10 R{6,20}
   + 10 R{6,23} + 10 R{6,24} + 10 R{6,27} <= 10
 R2_26: 6 R{1,9} + 6 R{2,0} + 6 R{2,22} + 6 R{3,14} + 6 R{3,24} + 6 R{4,16}
   + 6 R{4,18} + 6 R{4,26} + 6 R{5,4} + 6 R{5,5} + 6 R{5,11} + 6 R{5,15}
   + 6 R{5,19} + 6 R{6,14} + 6 R{6,17} + 6 R{6,21} + 6 R{6,23} <= 6
 R2_27: 6 R{0,14} + 6 R{0,15} + 6 R{0,16} + 6 R{1,2} + 6 R{1,3} + 6 R{1,10}
   + 6 R{3,1} + 6 R{3,2} + 6 R{3,3} + 6 R{3,4} + 6 R{3,6} + 6 R{3,14}
   + 6 R{3,22} + 6 R{4,0} + 6 R{4,1} + 6 R{4,2} + 6 R{4,7} + 6 R{4,8}
   + 6 R{4,9} + 6 R{4,10} + 6 R{4,11} + 6 R{4,13} + 6 R{4,14} + 6 R{4,15}
   + 6 R{4,18} + 6 R{4,19} + 6 R{4,22} + 6 R{4,23} + 6 R{4,24} + 6 R{4,25}
   + 6 R{4,26} + 6 R{4,27} + 6 R{4,28} + 6 R{4,29} + 6 R{4,30} + 6 R{4,31}
   + 6 R{4,33} + 6 R{5,8} + 6 R{5,14} + 6 R{6,27} <= 6
 R2_28: 9 R{3,5} + 9 R{3,8} + 9 R{3,12} + 9 R{3,14} + 9 R{4,1} + 9 R{4,2}
   + 9 R{4,7} + 9 R{4,8} + 9 R{4,17} + 9 R{4,19} + 9 R{4,22} + 9 R{4,23}
   + 9 R{4,31} + 9 R{4,33} + 9 R{5,4} + 9 R{5,5} + 9 R{6,7} + 9 R{6,17}
   <= 9
 R2_29: 11 R{2,7} + 11 R{2,8} + 11 R{2,9} + 11 R{2,11} + 11 R{2,12}
   + 11 R{2,13} + 11 R{2,14} + 11 R{2,15} + 11 R{2,17} + 11 R{2,18}
   + 11 R{2,19} + 11 R{2,23} + 11 R{4,13} + 11 R{4,14} + 11 R{4,15}
   + 11 R{4,18} + 11 R{4,22} + 11 R{4,26} + 11 R{4,28} + 11 R{4,30}
   + 11 R{5,16} + 11 R{5,18} + 11 R{5,22} + 11 R{6,7} + 11 R{6,8}
   + 11 R{6,12} + 11 R{6,13} <= 11
 R2_30: 9 R{0,3} + 9 R{0,4} + 9 R{0,7} + 9 R{0,8} + 9 R{0,10} + 9 R{0,11}
   + 9 R{0,12} + 9 R{1,6} + 9 R{3,5} + 9 R{3,7} + 9 R{3,15} + 9 R{3,16}
   + 9 R{3,18} + 9 R{3,19} + 9 R{3,21} + 9 R{3,22} + 9 R{3,23} + 9 R{3,27}
   + 9 R{4,4} + 9 R{4,5} + 9 R{4,6} + 9 R{4,9} + 9 R{4,11} + 9 R{4,12}
   + 9 R{4,15} + 9 R{4,16} + 9 R{4,18} + 9 R{4,20} + 9 R{4,21} + 9 R{4,25}
   + 9 R{4,26} + 9 R{4,28} + 9 R{4,29} + 9 R{4,30} + 9 R{4,32} + 9 R{5,21}
   + 9 R{6,7} + 9 R{6,9} + 9 R{6,14} + 9 R{6,16} + 9 R{6,20} + 9 R{6,22}
   + 9 R{6,23} + 9 R{6,27} <= 9
 R2_31: 11 R{1,8} + 11 R{3,12} + 11 R{3,28} + 11 R{4,16} + 11 R{4,18}
   + 11 R{4,19} + 11 R{4,22} + 11 R{4,25} + 11 R{4,26} + 11 R{4,29}
   + 11 R{6,16} + 11 R{6,20} + 11 R{6,23} + 11 R{6,27} <= 11
 R2_32: 5 R{0,7} + 5 R{0,8} + 5 R{0,10} + 5 R{0,11} + 5 R{0,12} + 5 R{0,14}
   + 5 R{1,9} + 5 R{1,11} + 5 R{3,4} + 5 R{3,10} + 5 R{3,15} + 5 R{3,16}
   + 5 R{3,18} + 5 R{3,19} + 5 R{3,20} + 5 R{3,21} + 5 R{3,23} + 5 R{3,24}
   + 5 R{3,25} + 5 R{3,26} + 5 R{3,27} + 5 R{3,28} + 5 R{4,16} + 5 R{4,28}
   + 5 R{4,30} + 5 R{4,32} + 5 R{5,6} + 5 R{5,19} + 5 R{6,3} + 5 R{6,4}
   + 5 R{6,5} + 5 R{6,13} + 5 R{6,14} + 5 R{6,17} + 5 R{6,21} + 5 R{6,24}
   <= 5
 R2_33: 8 R{0,4} + 8 R{0,5} + 8 R{0,7} + 8 R{0,9} + 8 R{0,11} + 8 R{0,13}
   + 8 R{1,6} + 8 R{3,7} + 8 R{3,11} + 8 R{3,17} + 8 R{3,18} + 8 R{3,19}
   + 8 R{3,20} + 8 R{3,21} + 8 R{3,25} + 8 R{3,26} + 8 R{3,28} + 8 R{4,9}
   + 8 R{4,10} + 8 R{4,26} + 8 R{5,12} + 8 R{5,17} + 8 R{6,3} + 8 R{6,4}
   + 8 R{6,5} + 8 R{6,7} + 8 R{6,11} + 8 R{6,14} + 8 R{6,16} + 8 R{6,17}
   + 8 R{6,18} + 8 R{6,20} + 8 R{6,21} + 8 R{6,23} <= 8
 R2_34: 8 R{0,16} + 8 R{1,7} + 8 R{1,10} + 8 R{4,4} + 8 R{4,5} + 8 R{4,9}
   + 8 R{4,10} + 8 R{4,11} + 8 R{4,12} + 8 R{4,14} + 8 R{4,15} + 8 R{4,16}
   + 8 R{4,18} + 8 R{4,20} + 8 R{4,21} + 8 R{4,26} + 8 R{4,28} + 8 R{4,30}
   + 8 R{4,31} + 8 R{4,32} + 8 R{5,25} + 8 R{6,9} + 8 R{6,10} + 8 R{6,11}
   + 8 R{6,16} + 8 R{6,18} + 8 R{6,20} + 8 R{6,23} + 8 R{6,24} + 8 R{6,27}
   <= 8
Bounds
End
